<instance format="XCSP3" type="COP">
<variables>
<array id="allocated_frequencies_r" note="allocated_frequencies_r[i] : frequence allouée au recepteur" size="[50]"> 0..13 </array>
<array id="allocated_frequencies_e" note="allocated_frequencies_e[i] : frequence allouée à l'emetteur" size="[50]"> 0..13 </array>
</variables>
<constraints>
<intension> eq(allocated_frequencies_e[0],allocated_frequencies_r[4]) </intension>
<intension> eq(allocated_frequencies_e[4],allocated_frequencies_r[0]) </intension>
<intension> eq(allocated_frequencies_e[5],allocated_frequencies_r[48]) </intension>
<intension> eq(allocated_frequencies_e[48],allocated_frequencies_r[5]) </intension>
<intension> eq(allocated_frequencies_e[15],allocated_frequencies_r[19]) </intension>
<intension> eq(allocated_frequencies_e[19],allocated_frequencies_r[15]) </intension>
<intension> eq(allocated_frequencies_e[19],allocated_frequencies_r[42]) </intension>
<intension> eq(allocated_frequencies_e[42],allocated_frequencies_r[19]) </intension>
<intension> eq(allocated_frequencies_e[27],allocated_frequencies_r[39]) </intension>
<intension> eq(allocated_frequencies_e[39],allocated_frequencies_r[27]) </intension>
<intension> ge(dist(allocated_frequencies_r[0],allocated_frequencies_r[7]),3) </intension>
<intension> ge(dist(allocated_frequencies_r[0],allocated_frequencies_e[7]),3) </intension>
<intension> ge(dist(allocated_frequencies_e[0],allocated_frequencies_r[7]),3) </intension>
<intension> ge(dist(allocated_frequencies_e[0],allocated_frequencies_e[7]),3) </intension>
<intension> ge(dist(allocated_frequencies_r[0],allocated_frequencies_r[18]),2) </intension>
<intension> ge(dist(allocated_frequencies_r[0],allocated_frequencies_e[18]),2) </intension>
<intension> ge(dist(allocated_frequencies_e[0],allocated_frequencies_r[18]),2) </intension>
<intension> ge(dist(allocated_frequencies_e[0],allocated_frequencies_e[18]),2) </intension>
<intension> ge(dist(allocated_frequencies_r[0],allocated_frequencies_r[31]),3) </intension>
<intension> ge(dist(allocated_frequencies_r[0],allocated_frequencies_e[31]),3) </intension>
<intension> ge(dist(allocated_frequencies_e[0],allocated_frequencies_r[31]),3) </intension>
<intension> ge(dist(allocated_frequencies_e[0],allocated_frequencies_e[31]),3) </intension>
<intension> ge(dist(allocated_frequencies_r[0],allocated_frequencies_r[35]),3) </intension>
<intension> ge(dist(allocated_frequencies_r[0],allocated_frequencies_e[35]),3) </intension>
<intension> ge(dist(allocated_frequencies_e[0],allocated_frequencies_r[35]),3) </intension>
<intension> ge(dist(allocated_frequencies_e[0],allocated_frequencies_e[35]),3) </intension>
<intension> ge(dist(allocated_frequencies_r[0],allocated_frequencies_r[36]),2) </intension>
<intension> ge(dist(allocated_frequencies_r[0],allocated_frequencies_e[36]),2) </intension>
<intension> ge(dist(allocated_frequencies_e[0],allocated_frequencies_r[36]),2) </intension>
<intension> ge(dist(allocated_frequencies_e[0],allocated_frequencies_e[36]),2) </intension>
<intension> ge(dist(allocated_frequencies_r[1],allocated_frequencies_r[19]),3) </intension>
<intension> ge(dist(allocated_frequencies_r[1],allocated_frequencies_e[19]),3) </intension>
<intension> ge(dist(allocated_frequencies_e[1],allocated_frequencies_r[19]),3) </intension>
<intension> ge(dist(allocated_frequencies_e[1],allocated_frequencies_e[19]),3) </intension>
<intension> ge(dist(allocated_frequencies_r[1],allocated_frequencies_r[22]),3) </intension>
<intension> ge(dist(allocated_frequencies_r[1],allocated_frequencies_e[22]),3) </intension>
<intension> ge(dist(allocated_frequencies_e[1],allocated_frequencies_r[22]),3) </intension>
<intension> ge(dist(allocated_frequencies_e[1],allocated_frequencies_e[22]),3) </intension>
<intension> ge(dist(allocated_frequencies_r[2],allocated_frequencies_r[11]),3) </intension>
<intension> ge(dist(allocated_frequencies_r[2],allocated_frequencies_e[11]),3) </intension>
<intension> ge(dist(allocated_frequencies_e[2],allocated_frequencies_r[11]),3) </intension>
<intension> ge(dist(allocated_frequencies_e[2],allocated_frequencies_e[11]),3) </intension>
<intension> ge(dist(allocated_frequencies_r[2],allocated_frequencies_r[26]),2) </intension>
<intension> ge(dist(allocated_frequencies_r[2],allocated_frequencies_e[26]),2) </intension>
<intension> ge(dist(allocated_frequencies_e[2],allocated_frequencies_r[26]),2) </intension>
<intension> ge(dist(allocated_frequencies_e[2],allocated_frequencies_e[26]),2) </intension>
<intension> ge(dist(allocated_frequencies_r[3],allocated_frequencies_r[5]),4) </intension>
<intension> ge(dist(allocated_frequencies_r[3],allocated_frequencies_e[5]),4) </intension>
<intension> ge(dist(allocated_frequencies_e[3],allocated_frequencies_r[5]),4) </intension>
<intension> ge(dist(allocated_frequencies_e[3],allocated_frequencies_e[5]),4) </intension>
<intension> ge(dist(allocated_frequencies_r[3],allocated_frequencies_r[6]),3) </intension>
<intension> ge(dist(allocated_frequencies_r[3],allocated_frequencies_e[6]),3) </intension>
<intension> ge(dist(allocated_frequencies_e[3],allocated_frequencies_r[6]),3) </intension>
<intension> ge(dist(allocated_frequencies_e[3],allocated_frequencies_e[6]),3) </intension>
<intension> ge(dist(allocated_frequencies_r[3],allocated_frequencies_r[44]),3) </intension>
<intension> ge(dist(allocated_frequencies_r[3],allocated_frequencies_e[44]),3) </intension>
<intension> ge(dist(allocated_frequencies_e[3],allocated_frequencies_r[44]),3) </intension>
<intension> ge(dist(allocated_frequencies_e[3],allocated_frequencies_e[44]),3) </intension>
<intension> ge(dist(allocated_frequencies_r[4],allocated_frequencies_r[7]),4) </intension>
<intension> ge(dist(allocated_frequencies_r[4],allocated_frequencies_e[7]),4) </intension>
<intension> ge(dist(allocated_frequencies_e[4],allocated_frequencies_r[7]),4) </intension>
<intension> ge(dist(allocated_frequencies_e[4],allocated_frequencies_e[7]),4) </intension>
<intension> ge(dist(allocated_frequencies_r[5],allocated_frequencies_r[10]),3) </intension>
<intension> ge(dist(allocated_frequencies_r[5],allocated_frequencies_e[10]),3) </intension>
<intension> ge(dist(allocated_frequencies_e[5],allocated_frequencies_r[10]),3) </intension>
<intension> ge(dist(allocated_frequencies_e[5],allocated_frequencies_e[10]),3) </intension>
<intension> ge(dist(allocated_frequencies_r[6],allocated_frequencies_r[11]),3) </intension>
<intension> ge(dist(allocated_frequencies_r[6],allocated_frequencies_e[11]),3) </intension>
<intension> ge(dist(allocated_frequencies_e[6],allocated_frequencies_r[11]),3) </intension>
<intension> ge(dist(allocated_frequencies_e[6],allocated_frequencies_e[11]),3) </intension>
<intension> ge(dist(allocated_frequencies_r[6],allocated_frequencies_r[12]),3) </intension>
<intension> ge(dist(allocated_frequencies_r[6],allocated_frequencies_e[12]),3) </intension>
<intension> ge(dist(allocated_frequencies_e[6],allocated_frequencies_r[12]),3) </intension>
<intension> ge(dist(allocated_frequencies_e[6],allocated_frequencies_e[12]),3) </intension>
<intension> ge(dist(allocated_frequencies_r[6],allocated_frequencies_r[13]),4) </intension>
<intension> ge(dist(allocated_frequencies_r[6],allocated_frequencies_e[13]),4) </intension>
<intension> ge(dist(allocated_frequencies_e[6],allocated_frequencies_r[13]),4) </intension>
<intension> ge(dist(allocated_frequencies_e[6],allocated_frequencies_e[13]),4) </intension>
<intension> ge(dist(allocated_frequencies_r[6],allocated_frequencies_r[22]),4) </intension>
<intension> ge(dist(allocated_frequencies_r[6],allocated_frequencies_e[22]),4) </intension>
<intension> ge(dist(allocated_frequencies_e[6],allocated_frequencies_r[22]),4) </intension>
<intension> ge(dist(allocated_frequencies_e[6],allocated_frequencies_e[22]),4) </intension>
<intension> ge(dist(allocated_frequencies_r[6],allocated_frequencies_r[24]),3) </intension>
<intension> ge(dist(allocated_frequencies_r[6],allocated_frequencies_e[24]),3) </intension>
<intension> ge(dist(allocated_frequencies_e[6],allocated_frequencies_r[24]),3) </intension>
<intension> ge(dist(allocated_frequencies_e[6],allocated_frequencies_e[24]),3) </intension>
<intension> ge(dist(allocated_frequencies_r[6],allocated_frequencies_r[29]),4) </intension>
<intension> ge(dist(allocated_frequencies_r[6],allocated_frequencies_e[29]),4) </intension>
<intension> ge(dist(allocated_frequencies_e[6],allocated_frequencies_r[29]),4) </intension>
<intension> ge(dist(allocated_frequencies_e[6],allocated_frequencies_e[29]),4) </intension>
<intension> ge(dist(allocated_frequencies_r[6],allocated_frequencies_r[30]),4) </intension>
<intension> ge(dist(allocated_frequencies_r[6],allocated_frequencies_e[30]),4) </intension>
<intension> ge(dist(allocated_frequencies_e[6],allocated_frequencies_r[30]),4) </intension>
<intension> ge(dist(allocated_frequencies_e[6],allocated_frequencies_e[30]),4) </intension>
<intension> ge(dist(allocated_frequencies_r[6],allocated_frequencies_r[37]),3) </intension>
<intension> ge(dist(allocated_frequencies_r[6],allocated_frequencies_e[37]),3) </intension>
<intension> ge(dist(allocated_frequencies_e[6],allocated_frequencies_r[37]),3) </intension>
<intension> ge(dist(allocated_frequencies_e[6],allocated_frequencies_e[37]),3) </intension>
<intension> ge(dist(allocated_frequencies_r[6],allocated_frequencies_r[46]),2) </intension>
<intension> ge(dist(allocated_frequencies_r[6],allocated_frequencies_e[46]),2) </intension>
<intension> ge(dist(allocated_frequencies_e[6],allocated_frequencies_r[46]),2) </intension>
<intension> ge(dist(allocated_frequencies_e[6],allocated_frequencies_e[46]),2) </intension>
<intension> ge(dist(allocated_frequencies_r[7],allocated_frequencies_r[35]),4) </intension>
<intension> ge(dist(allocated_frequencies_r[7],allocated_frequencies_e[35]),4) </intension>
<intension> ge(dist(allocated_frequencies_e[7],allocated_frequencies_r[35]),4) </intension>
<intension> ge(dist(allocated_frequencies_e[7],allocated_frequencies_e[35]),4) </intension>
<intension> ge(dist(allocated_frequencies_r[8],allocated_frequencies_r[45]),2) </intension>
<intension> ge(dist(allocated_frequencies_r[8],allocated_frequencies_e[45]),2) </intension>
<intension> ge(dist(allocated_frequencies_e[8],allocated_frequencies_r[45]),2) </intension>
<intension> ge(dist(allocated_frequencies_e[8],allocated_frequencies_e[45]),2) </intension>
<intension> ge(dist(allocated_frequencies_r[9],allocated_frequencies_r[23]),2) </intension>
<intension> ge(dist(allocated_frequencies_r[9],allocated_frequencies_e[23]),2) </intension>
<intension> ge(dist(allocated_frequencies_e[9],allocated_frequencies_r[23]),2) </intension>
<intension> ge(dist(allocated_frequencies_e[9],allocated_frequencies_e[23]),2) </intension>
<intension> ge(dist(allocated_frequencies_r[10],allocated_frequencies_r[11]),3) </intension>
<intension> ge(dist(allocated_frequencies_r[10],allocated_frequencies_e[11]),3) </intension>
<intension> ge(dist(allocated_frequencies_e[10],allocated_frequencies_r[11]),3) </intension>
<intension> ge(dist(allocated_frequencies_e[10],allocated_frequencies_e[11]),3) </intension>
<intension> ge(dist(allocated_frequencies_r[10],allocated_frequencies_r[16]),3) </intension>
<intension> ge(dist(allocated_frequencies_r[10],allocated_frequencies_e[16]),3) </intension>
<intension> ge(dist(allocated_frequencies_e[10],allocated_frequencies_r[16]),3) </intension>
<intension> ge(dist(allocated_frequencies_e[10],allocated_frequencies_e[16]),3) </intension>
<intension> ge(dist(allocated_frequencies_r[12],allocated_frequencies_r[35]),3) </intension>
<intension> ge(dist(allocated_frequencies_r[12],allocated_frequencies_e[35]),3) </intension>
<intension> ge(dist(allocated_frequencies_e[12],allocated_frequencies_r[35]),3) </intension>
<intension> ge(dist(allocated_frequencies_e[12],allocated_frequencies_e[35]),3) </intension>
<intension> ge(dist(allocated_frequencies_r[13],allocated_frequencies_r[26]),3) </intension>
<intension> ge(dist(allocated_frequencies_r[13],allocated_frequencies_e[26]),3) </intension>
<intension> ge(dist(allocated_frequencies_e[13],allocated_frequencies_r[26]),3) </intension>
<intension> ge(dist(allocated_frequencies_e[13],allocated_frequencies_e[26]),3) </intension>
<intension> ge(dist(allocated_frequencies_r[13],allocated_frequencies_r[35]),2) </intension>
<intension> ge(dist(allocated_frequencies_r[13],allocated_frequencies_e[35]),2) </intension>
<intension> ge(dist(allocated_frequencies_e[13],allocated_frequencies_r[35]),2) </intension>
<intension> ge(dist(allocated_frequencies_e[13],allocated_frequencies_e[35]),2) </intension>
<intension> ge(dist(allocated_frequencies_r[14],allocated_frequencies_r[49]),4) </intension>
<intension> ge(dist(allocated_frequencies_r[14],allocated_frequencies_e[49]),4) </intension>
<intension> ge(dist(allocated_frequencies_e[14],allocated_frequencies_r[49]),4) </intension>
<intension> ge(dist(allocated_frequencies_e[14],allocated_frequencies_e[49]),4) </intension>
<intension> ge(dist(allocated_frequencies_r[15],allocated_frequencies_r[20]),3) </intension>
<intension> ge(dist(allocated_frequencies_r[15],allocated_frequencies_e[20]),3) </intension>
<intension> ge(dist(allocated_frequencies_e[15],allocated_frequencies_r[20]),3) </intension>
<intension> ge(dist(allocated_frequencies_e[15],allocated_frequencies_e[20]),3) </intension>
<intension> ge(dist(allocated_frequencies_r[15],allocated_frequencies_r[21]),3) </intension>
<intension> ge(dist(allocated_frequencies_r[15],allocated_frequencies_e[21]),3) </intension>
<intension> ge(dist(allocated_frequencies_e[15],allocated_frequencies_r[21]),3) </intension>
<intension> ge(dist(allocated_frequencies_e[15],allocated_frequencies_e[21]),3) </intension>
<intension> ge(dist(allocated_frequencies_r[16],allocated_frequencies_r[28]),3) </intension>
<intension> ge(dist(allocated_frequencies_r[16],allocated_frequencies_e[28]),3) </intension>
<intension> ge(dist(allocated_frequencies_e[16],allocated_frequencies_r[28]),3) </intension>
<intension> ge(dist(allocated_frequencies_e[16],allocated_frequencies_e[28]),3) </intension>
<intension> ge(dist(allocated_frequencies_r[16],allocated_frequencies_r[48]),3) </intension>
<intension> ge(dist(allocated_frequencies_r[16],allocated_frequencies_e[48]),3) </intension>
<intension> ge(dist(allocated_frequencies_e[16],allocated_frequencies_r[48]),3) </intension>
<intension> ge(dist(allocated_frequencies_e[16],allocated_frequencies_e[48]),3) </intension>
<intension> ge(dist(allocated_frequencies_r[17],allocated_frequencies_r[35]),2) </intension>
<intension> ge(dist(allocated_frequencies_r[17],allocated_frequencies_e[35]),2) </intension>
<intension> ge(dist(allocated_frequencies_e[17],allocated_frequencies_r[35]),2) </intension>
<intension> ge(dist(allocated_frequencies_e[17],allocated_frequencies_e[35]),2) </intension>
<intension> ge(dist(allocated_frequencies_r[17],allocated_frequencies_r[39]),3) </intension>
<intension> ge(dist(allocated_frequencies_r[17],allocated_frequencies_e[39]),3) </intension>
<intension> ge(dist(allocated_frequencies_e[17],allocated_frequencies_r[39]),3) </intension>
<intension> ge(dist(allocated_frequencies_e[17],allocated_frequencies_e[39]),3) </intension>
<intension> ge(dist(allocated_frequencies_r[18],allocated_frequencies_r[21]),2) </intension>
<intension> ge(dist(allocated_frequencies_r[18],allocated_frequencies_e[21]),2) </intension>
<intension> ge(dist(allocated_frequencies_e[18],allocated_frequencies_r[21]),2) </intension>
<intension> ge(dist(allocated_frequencies_e[18],allocated_frequencies_e[21]),2) </intension>
<intension> ge(dist(allocated_frequencies_r[18],allocated_frequencies_r[36]),4) </intension>
<intension> ge(dist(allocated_frequencies_r[18],allocated_frequencies_e[36]),4) </intension>
<intension> ge(dist(allocated_frequencies_e[18],allocated_frequencies_r[36]),4) </intension>
<intension> ge(dist(allocated_frequencies_e[18],allocated_frequencies_e[36]),4) </intension>
<intension> ge(dist(allocated_frequencies_r[19],allocated_frequencies_r[25]),4) </intension>
<intension> ge(dist(allocated_frequencies_r[19],allocated_frequencies_e[25]),4) </intension>
<intension> ge(dist(allocated_frequencies_e[19],allocated_frequencies_r[25]),4) </intension>
<intension> ge(dist(allocated_frequencies_e[19],allocated_frequencies_e[25]),4) </intension>
<intension> ge(dist(allocated_frequencies_r[19],allocated_frequencies_r[38]),2) </intension>
<intension> ge(dist(allocated_frequencies_r[19],allocated_frequencies_e[38]),2) </intension>
<intension> ge(dist(allocated_frequencies_e[19],allocated_frequencies_r[38]),2) </intension>
<intension> ge(dist(allocated_frequencies_e[19],allocated_frequencies_e[38]),2) </intension>
<intension> ge(dist(allocated_frequencies_r[19],allocated_frequencies_r[45]),3) </intension>
<intension> ge(dist(allocated_frequencies_r[19],allocated_frequencies_e[45]),3) </intension>
<intension> ge(dist(allocated_frequencies_e[19],allocated_frequencies_r[45]),3) </intension>
<intension> ge(dist(allocated_frequencies_e[19],allocated_frequencies_e[45]),3) </intension>
<intension> ge(dist(allocated_frequencies_r[19],allocated_frequencies_r[46]),3) </intension>
<intension> ge(dist(allocated_frequencies_r[19],allocated_frequencies_e[46]),3) </intension>
<intension> ge(dist(allocated_frequencies_e[19],allocated_frequencies_r[46]),3) </intension>
<intension> ge(dist(allocated_frequencies_e[19],allocated_frequencies_e[46]),3) </intension>
<intension> ge(dist(allocated_frequencies_r[22],allocated_frequencies_r[24]),3) </intension>
<intension> ge(dist(allocated_frequencies_r[22],allocated_frequencies_e[24]),3) </intension>
<intension> ge(dist(allocated_frequencies_e[22],allocated_frequencies_r[24]),3) </intension>
<intension> ge(dist(allocated_frequencies_e[22],allocated_frequencies_e[24]),3) </intension>
<intension> ge(dist(allocated_frequencies_r[22],allocated_frequencies_r[27]),2) </intension>
<intension> ge(dist(allocated_frequencies_r[22],allocated_frequencies_e[27]),2) </intension>
<intension> ge(dist(allocated_frequencies_e[22],allocated_frequencies_r[27]),2) </intension>
<intension> ge(dist(allocated_frequencies_e[22],allocated_frequencies_e[27]),2) </intension>
<intension> ge(dist(allocated_frequencies_r[22],allocated_frequencies_r[49]),4) </intension>
<intension> ge(dist(allocated_frequencies_r[22],allocated_frequencies_e[49]),4) </intension>
<intension> ge(dist(allocated_frequencies_e[22],allocated_frequencies_r[49]),4) </intension>
<intension> ge(dist(allocated_frequencies_e[22],allocated_frequencies_e[49]),4) </intension>
<intension> ge(dist(allocated_frequencies_r[23],allocated_frequencies_r[34]),3) </intension>
<intension> ge(dist(allocated_frequencies_r[23],allocated_frequencies_e[34]),3) </intension>
<intension> ge(dist(allocated_frequencies_e[23],allocated_frequencies_r[34]),3) </intension>
<intension> ge(dist(allocated_frequencies_e[23],allocated_frequencies_e[34]),3) </intension>
<intension> ge(dist(allocated_frequencies_r[23],allocated_frequencies_r[44]),3) </intension>
<intension> ge(dist(allocated_frequencies_r[23],allocated_frequencies_e[44]),3) </intension>
<intension> ge(dist(allocated_frequencies_e[23],allocated_frequencies_r[44]),3) </intension>
<intension> ge(dist(allocated_frequencies_e[23],allocated_frequencies_e[44]),3) </intension>
<intension> ge(dist(allocated_frequencies_r[23],allocated_frequencies_r[47]),2) </intension>
<intension> ge(dist(allocated_frequencies_r[23],allocated_frequencies_e[47]),2) </intension>
<intension> ge(dist(allocated_frequencies_e[23],allocated_frequencies_r[47]),2) </intension>
<intension> ge(dist(allocated_frequencies_e[23],allocated_frequencies_e[47]),2) </intension>
<intension> ge(dist(allocated_frequencies_r[24],allocated_frequencies_r[32]),4) </intension>
<intension> ge(dist(allocated_frequencies_r[24],allocated_frequencies_e[32]),4) </intension>
<intension> ge(dist(allocated_frequencies_e[24],allocated_frequencies_r[32]),4) </intension>
<intension> ge(dist(allocated_frequencies_e[24],allocated_frequencies_e[32]),4) </intension>
<intension> ge(dist(allocated_frequencies_r[25],allocated_frequencies_r[39]),2) </intension>
<intension> ge(dist(allocated_frequencies_r[25],allocated_frequencies_e[39]),2) </intension>
<intension> ge(dist(allocated_frequencies_e[25],allocated_frequencies_r[39]),2) </intension>
<intension> ge(dist(allocated_frequencies_e[25],allocated_frequencies_e[39]),2) </intension>
<intension> ge(dist(allocated_frequencies_r[27],allocated_frequencies_r[29]),3) </intension>
<intension> ge(dist(allocated_frequencies_r[27],allocated_frequencies_e[29]),3) </intension>
<intension> ge(dist(allocated_frequencies_e[27],allocated_frequencies_r[29]),3) </intension>
<intension> ge(dist(allocated_frequencies_e[27],allocated_frequencies_e[29]),3) </intension>
<intension> ge(dist(allocated_frequencies_r[27],allocated_frequencies_r[33]),4) </intension>
<intension> ge(dist(allocated_frequencies_r[27],allocated_frequencies_e[33]),4) </intension>
<intension> ge(dist(allocated_frequencies_e[27],allocated_frequencies_r[33]),4) </intension>
<intension> ge(dist(allocated_frequencies_e[27],allocated_frequencies_e[33]),4) </intension>
<intension> ge(dist(allocated_frequencies_r[27],allocated_frequencies_r[40]),3) </intension>
<intension> ge(dist(allocated_frequencies_r[27],allocated_frequencies_e[40]),3) </intension>
<intension> ge(dist(allocated_frequencies_e[27],allocated_frequencies_r[40]),3) </intension>
<intension> ge(dist(allocated_frequencies_e[27],allocated_frequencies_e[40]),3) </intension>
<intension> ge(dist(allocated_frequencies_r[35],allocated_frequencies_r[43]),3) </intension>
<intension> ge(dist(allocated_frequencies_r[35],allocated_frequencies_e[43]),3) </intension>
<intension> ge(dist(allocated_frequencies_e[35],allocated_frequencies_r[43]),3) </intension>
<intension> ge(dist(allocated_frequencies_e[35],allocated_frequencies_e[43]),3) </intension>
<intension> ge(dist(allocated_frequencies_r[41],allocated_frequencies_r[47]),3) </intension>
<intension> ge(dist(allocated_frequencies_r[41],allocated_frequencies_e[47]),3) </intension>
<intension> ge(dist(allocated_frequencies_e[41],allocated_frequencies_r[47]),3) </intension>
<intension> ge(dist(allocated_frequencies_e[41],allocated_frequencies_e[47]),3) </intension>
<intension> ge(dist(allocated_frequencies_r[43],allocated_frequencies_r[46]),3) </intension>
<intension> ge(dist(allocated_frequencies_r[43],allocated_frequencies_e[46]),3) </intension>
<intension> ge(dist(allocated_frequencies_e[43],allocated_frequencies_r[46]),3) </intension>
<intension> ge(dist(allocated_frequencies_e[43],allocated_frequencies_e[46]),3) </intension>
</constraints>
<objectives>
<minimize type="maximum"> allocated_frequencies_r[] allocated_frequencies_e[] </minimize>
</objectives>
</instance>
